proyfinal/src/viki/013/andrea/andrea-localstore/experimentInOfficeAgust.take6/worker_1/4fc78a81-153a-4c14-ad7f-88410f44ab4a.als.cnf.out
Reading from standard input... Use '--help' for help.
============================[ Problem Statistics ]=============================
|                                                                             |
|  Number of variables:         87638                                         |
|  Number of clauses:          161767                                         |
|  Parse time:                   0.04 s                                       |
|                                                                             |
============================[ Search Statistics ]==============================
| Conflicts |          ORIGINAL         |          LEARNT          | Progress |
|           |    Vars  Clauses Literals |    Limit  Clauses Lit/Cl |          |
===============================================================================
|       100 |   63755   110248   275259 |    40424      100     10 | 27.252 % |
|       250 |   63755   110248   275259 |    44466      250     77 | 27.252 % |
|       475 |   63755   110248   275259 |    48913      475     71 | 27.252 % |
|       812 |   63755   110248   275259 |    53804      812     82 | 27.252 % |
|      1318 |   63755   110248   275259 |    59185     1318     93 | 27.252 % |
|      2077 |   63755   110248   275259 |    65103     2077    106 | 27.252 % |
|      3216 |   63755   110248   275259 |    71614     3216    118 | 27.252 % |
|      4924 |   63750   110188   275125 |    78775     4868    100 | 27.258 % |
|      7486 |   57231   109983   274692 |    86653     6624     88 | 34.696 % |
|     11330 |   57088    89380   223977 |    95318    10422     81 | 34.859 % |
===============================================================================
restarts              : 59
conflicts             : 13151          (7136 /sec)
decisions             : 61444          (0.00 % random) (33342 /sec)
propagations          : 20232307       (10978903 /sec)
conflict literals     : 1124845        (37.79 % deleted)
Memory used           : 27.34 MB
CPU time              : 1.84284 s

INDETERMINATE
